25 350
  0     40.0     50.0       0.0     3390.0      0.0       0.0       0.0  
  1     52.0     75.0      71.0      711.0     90.0       9.0      10.0  
  2     45.0     70.0      20.0      660.0     90.0      28.0      30.0  
  3     62.0     69.0      927.0    1567.0     90.0       2.0      10.0  
  4     60.0     66.0     1021.0    1661.0     90.0      10.0      10.0  
  5     42.0     65.0      15.0      655.0     90.0       9.0      10.0  
  6     16.0     42.0      257.0     897.0     90.0       4.0      20.0  
  7     58.0     70.0      833.0    1473.0     90.0      14.0      20.0  
  8     34.0     60.0     2647.0    3287.0     90.0      17.0      20.0  
  9     28.0     70.0     2361.0    3001.0     90.0       9.0      10.0  
 10     35.0     66.0     2551.0    3191.0     90.0       3.0      10.0  
 11     35.0     69.0     2458.0    3098.0     90.0       7.0      10.0  
 12     25.0     85.0     1879.0    2519.0     90.0      10.0      20.0  
 13     22.0     75.0     2165.0    2805.0     90.0      23.0      30.0  
 14     22.0     85.0     1786.0    2426.0     90.0       8.0      10.0  
 15     20.0     80.0     1976.0    2616.0     90.0      16.0      40.0  
 16     20.0     85.0     1694.0    2334.0     90.0       1.0      40.0  
 17     18.0     75.0     2071.0    2711.0     90.0       3.0      20.0  
 18     15.0     75.0     1502.0    2142.0     90.0       3.0      20.0  
 19     15.0     80.0     1597.0    2237.0     90.0       3.0      10.0  
 20     30.0     50.0      10.0      650.0     90.0       9.0      10.0  
 21     30.0     56.0     2648.0    3288.0     90.0       6.0      20.0  
 22     28.0     52.0      12.0      652.0     90.0       7.0      20.0  
 23     14.0     66.0     1403.0    2043.0     90.0       7.0      10.0  
 24     25.0     50.0      15.0      655.0     90.0       5.0      10.0  
 25     22.0     66.0     2264.0    2904.0     90.0      35.0      40.0  
